c uprop, v00.0, 
c reading from data/prog590.c.cnf
c done reading: 0.002944
p cnf 149 645
-54 -75 0
-54 -71 0
54 71 75 0
-48 71 75 0
-48 -71 -75 0
48 71 -75 0
48 -71 75 0
54 -66 0
-64 -66 0
-54 64 66 0
-54 -59 64 0
54 -59 -64 0
54 59 64 0
-54 59 -64 0
-55 66 0
-52 -55 0
52 55 -66 0
-50 52 -66 0
-50 -52 66 0
50 52 66 0
50 -52 -66 0
-49 55 0
-46 -49 0
46 49 -55 0
46 -55 -73 0
-46 55 -73 0
46 55 73 0
-46 -55 73 0
49 -77 0
-68 -77 0
-49 68 77 0
-49 68 -78 0
49 -68 -78 0
49 68 78 0
-49 -68 78 0
77 -79 0
-61 -79 0
61 -77 79 0
61 -77 -80 0
-61 77 -80 0
61 77 80 0
-61 -77 80 0
79 -81 0
-57 -81 0
57 -79 81 0
57 -79 -82 0
-57 79 -82 0
57 79 82 0
-57 -79 82 0
71 -83 0
75 -83 0
-71 -75 83 0
-71 -75 -84 0
71 75 -84 0
-71 75 84 0
71 -75 84 0
-64 -71 85 0
-64 -83 85 0
-71 -83 85 0
64 71 -85 0
64 83 -85 0
71 83 -85 0
64 -85 -86 0
71 -85 -86 0
83 -85 -86 0
-64 85 86 0
-71 85 86 0
-83 85 86 0
-64 -71 -83 86 0
64 71 83 -86 0
-52 -64 87 0
-52 -85 87 0
-64 -85 87 0
52 64 -87 0
52 85 -87 0
64 85 -87 0
52 -87 -88 0
64 -87 -88 0
85 -87 -88 0
-52 87 88 0
-64 87 88 0
-85 87 88 0
-52 -64 -85 88 0
52 64 85 -88 0
-46 -52 89 0
-46 -87 89 0
-52 -87 89 0
46 52 -89 0
46 87 -89 0
52 87 -89 0
-44 46 -89 0
-44 52 -89 0
-44 87 -89 0
44 -46 89 0
44 -52 89 0
44 -87 89 0
44 -46 -52 -87 0
-44 46 52 87 0
43 -46 -68 0
43 -68 -89 0
43 -46 -89 0
-43 46 68 0
-43 68 89 0
-43 46 89 0
-42 -43 68 0
-42 -43 46 0
-42 -43 89 0
42 43 -68 0
42 43 -46 0
42 43 -89 0
42 -46 -68 -89 0
-42 46 68 89 0
41 -61 -68 0
41 -43 -61 0
41 -43 -68 0
-41 61 68 0
-41 43 61 0
-41 43 68 0
-40 -41 61 0
-40 -41 68 0
-40 -41 43 0
40 41 -61 0
40 41 -68 0
40 41 -43 0
40 -43 -61 -68 0
-40 43 61 68 0
39 -57 -61 0
39 -41 -57 0
39 -41 -61 0
-39 57 61 0
-39 41 57 0
-39 41 61 0
-39 57 -74 0
-39 61 -74 0
-39 41 -74 0
39 -57 74 0
39 -61 74 0
39 -41 74 0
-41 -57 -61 74 0
41 57 61 -74 0
57 -70 0
39 -70 0
-39 -57 70 0
-39 -57 -63 0
39 57 -63 0
39 -57 63 0
-39 57 63 0
42 -51 0
-51 75 0
-42 51 -75 0
-42 -45 -75 0
42 -45 75 0
-42 45 75 0
42 45 -75 0
-40 67 -71 0
-40 -51 67 0
-51 67 -71 0
40 -67 71 0
40 51 -67 0
51 -67 71 0
40 -60 -67 0
-60 -67 71 0
51 -60 -67 0
-40 60 67 0
60 67 -71 0
-51 60 67 0
-40 -51 60 -71 0
40 51 -60 71 0
56 -64 -74 0
56 -67 -74 0
56 -64 -67 0
-56 64 74 0
-56 67 74 0
-56 64 67 0
-38 -56 74 0
-38 -56 64 0
-38 -56 67 0
38 56 -74 0
38 56 -64 0
38 56 -67 0
38 -64 -67 -74 0
-38 64 67 74 0
37 -52 -63 0
37 -56 -63 0
37 -52 -56 0
-37 52 63 0
-37 56 63 0
-37 52 56 0
-36 -37 63 0
-36 -37 52 0
-36 -37 56 0
36 37 -63 0
36 37 -52 0
36 37 -56 0
36 -52 -56 -63 0
-36 52 56 63 0
35 -46 -70 0
35 -37 -70 0
35 -37 -46 0
-35 46 70 0
-35 37 70 0
-35 37 46 0
-34 -35 70 0
-34 -35 46 0
-34 -35 37 0
34 35 -70 0
34 35 -46 0
34 35 -37 0
34 -37 -46 -70 0
-34 37 46 70 0
-33 68 0
-33 35 0
33 -35 -68 0
-32 -35 -68 0
-32 35 68 0
32 35 -68 0
32 -35 68 0
-31 61 0
-31 33 0
31 -33 -61 0
-30 -33 -61 0
-30 33 61 0
30 33 -61 0
30 -33 61 0
-29 57 0
-29 31 0
29 -31 -57 0
-28 -31 -57 0
-28 31 57 0
28 31 -57 0
28 -31 57 0
-27 -75 0
-27 -84 0
27 75 84 0
-26 75 84 0
-26 -75 -84 0
26 -75 84 0
26 75 -84 0
-25 27 0
-25 -86 0
25 -27 86 0
-24 -27 86 0
-24 27 -86 0
24 27 86 0
24 -27 -86 0
-23 25 0
-23 -88 0
23 -25 88 0
-25 88 -90 0
25 -88 -90 0
25 88 90 0
-25 -88 90 0
23 -91 0
-44 -91 0
-23 44 91 0
-23 44 -92 0
23 -44 -92 0
23 44 92 0
-23 -44 92 0
91 -93 0
-45 -93 0
45 -91 93 0
45 -91 -94 0
-45 91 -94 0
45 91 94 0
-45 -91 94 0
93 -95 0
-60 -95 0
60 -93 95 0
60 -93 -96 0
-60 93 -96 0
60 93 96 0
-60 -93 96 0
95 -97 0
-38 -97 0
38 -95 97 0
38 -95 -98 0
-38 95 -98 0
38 95 98 0
-38 -95 98 0
97 -99 0
-36 -99 0
36 -97 99 0
36 -97 -100 0
-36 97 -100 0
36 97 100 0
-36 -97 100 0
99 -101 0
-34 -101 0
34 -99 101 0
34 -99 -102 0
-34 99 -102 0
34 99 102 0
-34 -99 102 0
101 -103 0
-32 -103 0
32 -101 103 0
32 -101 -104 0
-32 101 -104 0
32 101 104 0
-32 -101 104 0
103 -105 0
-30 -105 0
30 -103 105 0
30 -103 -106 0
-30 103 -106 0
30 103 106 0
-30 -103 106 0
105 -107 0
-28 -107 0
28 -105 107 0
28 -105 -108 0
-28 105 -108 0
28 105 108 0
-28 -105 108 0
107 -109 0
-29 -109 0
29 -107 109 0
29 -107 -110 0
-29 107 -110 0
29 107 110 0
-29 -107 110 0
-111 -113 0
-113 -114 0
111 113 114 0
111 114 -116 0
-111 -114 -116 0
-111 114 116 0
111 -114 116 0
113 -117 0
-117 -118 0
-113 117 118 0
-113 118 -120 0
113 -118 -120 0
113 118 120 0
-113 -118 120 0
117 -121 0
-121 -122 0
-117 121 122 0
-117 122 -124 0
117 -122 -124 0
117 122 124 0
-117 -122 124 0
121 -125 0
-125 -126 0
-121 125 126 0
-121 126 -128 0
121 -126 -128 0
121 126 128 0
-121 -126 128 0
125 -129 0
-129 -130 0
-125 129 130 0
-125 130 -132 0
125 -130 -132 0
125 130 132 0
-125 -130 132 0
129 -133 0
-133 -134 0
-129 133 134 0
-129 134 -136 0
129 -134 -136 0
129 134 136 0
-129 -134 136 0
133 -137 0
-137 -138 0
-133 137 138 0
-133 138 -140 0
133 -138 -140 0
133 138 140 0
-133 -138 140 0
114 -141 0
111 -141 0
-111 -114 141 0
-111 -114 -142 0
111 114 -142 0
111 -114 142 0
-111 114 142 0
-114 -118 143 0
-118 -141 143 0
-114 -141 143 0
114 118 -143 0
118 141 -143 0
114 141 -143 0
118 -143 -144 0
114 -143 -144 0
141 -143 -144 0
-118 143 144 0
-114 143 144 0
-141 143 144 0
-114 -118 -141 144 0
114 118 141 -144 0
-118 -122 145 0
-122 -143 145 0
-118 -143 145 0
118 122 -145 0
122 143 -145 0
118 143 -145 0
122 -145 -146 0
118 -145 -146 0
143 -145 -146 0
-122 145 146 0
-118 145 146 0
-143 145 146 0
-118 -122 -143 146 0
118 122 143 -146 0
-122 -126 147 0
-126 -145 147 0
-122 -145 147 0
122 126 -147 0
126 145 -147 0
122 145 -147 0
126 -147 -148 0
122 -147 -148 0
145 -147 -148 0
-126 147 148 0
-122 147 148 0
-145 147 148 0
-122 -126 -145 148 0
122 126 145 -148 0
-126 -130 149 0
-130 -147 149 0
-126 -147 149 0
126 130 -149 0
130 147 -149 0
126 147 -149 0
-76 130 -149 0
-76 126 -149 0
-76 147 -149 0
76 -130 149 0
76 -126 149 0
76 -147 149 0
76 -126 -130 -147 0
-76 126 130 147 0
72 -130 -134 0
72 -134 -149 0
72 -130 -149 0
-72 130 134 0
-72 134 149 0
-72 130 149 0
-65 -72 134 0
-65 -72 130 0
-65 -72 149 0
65 72 -134 0
65 72 -130 0
65 72 -149 0
65 -130 -134 -149 0
-65 130 134 149 0
53 -134 -138 0
53 -72 -138 0
53 -72 -134 0
-53 134 138 0
-53 72 138 0
-53 72 134 0
-47 -53 138 0
-47 -53 134 0
-47 -53 72 0
47 53 -138 0
47 53 -134 0
47 53 -72 0
47 -72 -134 -138 0
-47 72 134 138 0
-69 138 0
53 -69 0
-53 69 -138 0
-53 -62 -138 0
53 -62 138 0
53 62 -138 0
-53 62 138 0
-58 -111 0
-58 -142 0
58 111 142 0
111 -112 142 0
-111 -112 -142 0
-111 112 142 0
111 112 -142 0
58 -115 0
-115 -144 0
-58 115 144 0
-58 -119 144 0
58 -119 -144 0
58 119 144 0
-58 119 -144 0
115 -123 0
-123 -146 0
-115 123 146 0
-115 -127 146 0
115 -127 -146 0
115 127 146 0
-115 127 -146 0
123 -131 0
-131 -148 0
-123 131 148 0
-123 -135 148 0
123 -135 -148 0
123 135 148 0
-123 135 -148 0
131 -139 0
-76 -139 0
76 -131 139 0
-22 76 -131 0
-22 -76 131 0
22 76 131 0
22 -76 -131 0
-21 139 0
-21 -65 0
21 65 -139 0
-20 65 -139 0
-20 -65 139 0
20 65 139 0
20 -65 -139 0
-19 21 0
-19 -47 0
19 -21 47 0
-18 -21 47 0
-18 21 -47 0
18 21 47 0
18 -21 -47 0
-17 19 0
-17 -62 0
17 -19 62 0
-16 -19 62 0
-16 19 -62 0
16 19 62 0
16 -19 -62 0
-15 17 0
-15 -69 0
15 -17 69 0
-14 -17 69 0
-14 17 -69 0
14 17 69 0
14 -17 -69 0
-13 75 0
-13 111 0
13 -75 -111 0
-75 111 0
75 -111 0
12 -84 -142 0
12 -13 -84 0
12 -13 -142 0
-12 84 142 0
-12 13 84 0
-12 13 142 0
12 -84 0
12 -142 0
12 -13 0
-13 -84 -142 0
11 -86 -144 0
11 -12 -86 0
11 -12 -144 0
-11 86 144 0
-11 12 86 0
-11 12 144 0
11 -86 0
11 -144 0
11 -12 0
-12 -86 -144 0
10 -88 -146 0
10 -11 -88 0
10 -11 -146 0
-10 88 146 0
-10 11 88 0
-10 11 146 0
10 -88 0
10 -146 0
10 -11 0
-11 -88 -146 0
9 -44 -148 0
9 -10 -44 0
9 -10 -148 0
-9 44 148 0
-9 10 44 0
-9 10 148 0
9 -44 0
9 -148 0
9 -10 0
-10 -44 -148 0
8 -45 -76 0
8 -9 -45 0
8 -9 -76 0
-8 45 76 0
-8 9 45 0
-8 9 76 0
-8 45 0
-8 76 0
-8 9 0
9 45 76 0
7 -60 -65 0
7 -8 -60 0
7 -8 -65 0
-7 60 65 0
-7 8 60 0
-7 8 65 0
-7 60 0
-7 65 0
-7 8 0
8 60 65 0
6 -38 -47 0
6 -7 -38 0
6 -7 -47 0
-6 38 47 0
-6 7 38 0
-6 7 47 0
-6 38 0
-6 47 0
-6 7 0
7 38 47 0
5 -36 -62 0
5 -6 -36 0
5 -6 -62 0
-5 36 62 0
-5 6 36 0
-5 6 62 0
5 -36 0
5 -62 0
5 -6 0
-6 -36 -62 0
4 -34 -69 0
4 -5 -34 0
4 -5 -69 0
-4 34 69 0
-4 5 34 0
-4 5 69 0
4 -34 0
4 -69 0
4 -5 0
-5 -34 -69 0
-3 32 0
-3 4 0
3 -4 -32 0
4 -32 0
-4 32 0
-2 30 0
-2 3 0
2 -3 -30 0
3 -30 0
-3 30 0
-1 28 0
-1 2 0
1 -2 -28 0
2 -28 0
-2 28 0
-1 -29 0
1 -29 0
-1 29 0
